Set parameter Username
Academic license - for non-commercial use only - expires 2023-12-01
Set parameter TimeLimit to value 600
Set parameter MIPGap to value 1e-06
Set parameter Threads to value 1
Gurobi Optimizer version 9.5.2 build v9.5.2rc0 (linux64)
Thread count: 4 physical cores, 8 logical processors, using up to 1 threads
Optimize a model with 25927 rows, 200 columns and 77779 nonzeros
Model fingerprint: 0x707d2306
Variable types: 0 continuous, 200 integer (200 binary)
Coefficient statistics:
  Matrix range     [1e+00, 1e+00]
  Objective range  [1e+00, 1e+00]
  Bounds range     [1e+00, 1e+00]
  RHS range        [1e+00, 1e+00]
Found heuristic solution: objective 19.0000000
Presolve removed 2250 rows and 2 columns
Presolve time: 0.18s
Presolved: 23677 rows, 198 columns, 70912 nonzeros
Variable types: 0 continuous, 198 integer (198 binary)

Root relaxation: objective 1.296538e+02, 931 iterations, 0.34 seconds (1.01 work units)

    Nodes    |    Current Node    |     Objective Bounds      |     Work
 Expl Unexpl |  Obj  Depth IntInf | Incumbent    BestBd   Gap | It/Node Time

     0     0  129.65385    0  196   19.00000  129.65385   582%     -    0s
H    0     0                      22.0000000  129.65385   489%     -    0s
H    0     0                      63.0000000  129.65385   106%     -    0s
     0     0  121.00000    0  188   63.00000  121.00000  92.1%     -    2s
     0     0  120.46429    0  188   63.00000  120.46429  91.2%     -    2s
     0     0  120.40462    0  188   63.00000  120.40462  91.1%     -    2s
     0     0  120.40169    0  188   63.00000  120.40169  91.1%     -    2s
     0     0  120.40169    0  188   63.00000  120.40169  91.1%     -    2s
     0     0  115.20079    0  193   63.00000  115.20079  82.9%     -    3s
H    0     0                      66.0000000  115.20079  74.5%     -    3s
     0     0  114.70130    0  194   66.00000  114.70130  73.8%     -    3s
     0     0  114.59203    0  194   66.00000  114.59203  73.6%     -    3s
     0     0  114.51545    0  194   66.00000  114.51545  73.5%     -    3s
     0     0  114.48180    0  194   66.00000  114.48180  73.5%     -    3s
     0     0  114.47553    0  194   66.00000  114.47553  73.4%     -    3s
     0     0  114.47494    0  194   66.00000  114.47494  73.4%     -    3s
     0     0  112.61548    0  193   66.00000  112.61548  70.6%     -    4s
     0     0  112.29546    0  191   66.00000  112.29546  70.1%     -    4s
     0     0  112.16107    0  191   66.00000  112.16107  69.9%     -    4s
     0     0  112.12287    0  192   66.00000  112.12287  69.9%     -    4s
     0     0  112.09301    0  192   66.00000  112.09301  69.8%     -    5s
     0     0  112.09027    0  193   66.00000  112.09027  69.8%     -    5s
     0     0  112.08610    0  192   66.00000  112.08610  69.8%     -    5s
     0     0  112.08439    0  193   66.00000  112.08439  69.8%     -    5s
     0     0  111.31826    0  195   66.00000  111.31826  68.7%     -    5s
     0     0  110.91265    0  191   66.00000  110.91265  68.0%     -    5s
     0     0  110.82823    0  192   66.00000  110.82823  67.9%     -    5s
     0     0  110.75773    0  191   66.00000  110.75773  67.8%     -    5s
     0     0  110.75208    0  192   66.00000  110.75208  67.8%     -    5s
     0     0  110.74609    0  190   66.00000  110.74609  67.8%     -    5s
     0     0  110.74388    0  195   66.00000  110.74388  67.8%     -    5s
     0     0  110.73946    0  190   66.00000  110.73946  67.8%     -    5s
     0     0  110.73782    0  190   66.00000  110.73782  67.8%     -    5s
     0     0  110.18712    0  195   66.00000  110.18712  67.0%     -    6s
     0     0  110.02185    0  190   66.00000  110.02185  66.7%     -    6s
     0     0  109.99166    0  191   66.00000  109.99166  66.7%     -    6s
     0     0  109.98541    0  191   66.00000  109.98541  66.6%     -    6s
     0     0  109.97932    0  195   66.00000  109.97932  66.6%     -    6s
     0     0  109.97326    0  191   66.00000  109.97326  66.6%     -    6s
     0     0  109.96462    0  191   66.00000  109.96462  66.6%     -    6s
     0     0  109.96015    0  194   66.00000  109.96015  66.6%     -    6s
     0     0  109.95418    0  191   66.00000  109.95418  66.6%     -    6s
     0     0  109.95134    0  194   66.00000  109.95134  66.6%     -    6s
     0     0  109.94960    0  194   66.00000  109.94960  66.6%     -    6s
     0     0  109.46046    0  195   66.00000  109.46046  65.8%     -    6s
     0     0  109.34537    0  190   66.00000  109.34537  65.7%     -    7s
     0     0  109.25695    0  190   66.00000  109.25695  65.5%     -    7s
     0     0  109.23757    0  190   66.00000  109.23757  65.5%     -    7s
     0     0  109.23134    0  190   66.00000  109.23134  65.5%     -    7s
     0     0  109.22634    0  191   66.00000  109.22634  65.5%     -    7s
     0     0  109.22557    0  190   66.00000  109.22557  65.5%     -    7s
     0     0  108.97150    0  189   66.00000  108.97150  65.1%     -    7s
     0     0  108.93308    0  190   66.00000  108.93308  65.1%     -    7s
     0     0  108.89370    0  190   66.00000  108.89370  65.0%     -    7s
     0     0  108.88761    0  190   66.00000  108.88761  65.0%     -    7s
     0     0  108.88279    0  190   66.00000  108.88279  65.0%     -    7s
     0     0  108.88213    0  190   66.00000  108.88213  65.0%     -    7s
     0     0  108.78667    0  190   66.00000  108.78667  64.8%     -    7s
     0     0  108.66176    0  190   66.00000  108.66176  64.6%     -    8s
     0     0  108.63220    0  190   66.00000  108.63220  64.6%     -    8s
     0     0  108.63107    0  190   66.00000  108.63107  64.6%     -    8s
     0     0  108.50599    0  194   66.00000  108.50599  64.4%     -    8s
     0     0  108.34347    0  193   66.00000  108.34347  64.2%     -    8s
     0     0  108.33742    0  192   66.00000  108.33742  64.1%     -    8s
     0     0  108.33456    0  192   66.00000  108.33456  64.1%     -    8s
     0     0  108.33384    0  192   66.00000  108.33384  64.1%     -    8s
     0     0  108.05708    0  190   66.00000  108.05708  63.7%     -    8s
     0     0  107.68446    0  189   66.00000  107.68446  63.2%     -    8s
     0     0  107.65056    0  189   66.00000  107.65056  63.1%     -    9s
     0     0  107.64557    0  190   66.00000  107.64557  63.1%     -    9s
     0     0  107.63689    0  189   66.00000  107.63689  63.1%     -    9s
     0     0  107.63399    0  189   66.00000  107.63399  63.1%     -    9s
     0     0  107.62971    0  190   66.00000  107.62971  63.1%     -    9s
     0     0  107.62867    0  191   66.00000  107.62867  63.1%     -    9s
     0     0  107.41304    0  189   66.00000  107.41304  62.7%     -    9s
     0     0  107.27951    0  190   66.00000  107.27951  62.5%     -    9s
     0     0  107.24000    0  189   66.00000  107.24000  62.5%     -    9s
     0     0  107.24000    0  189   66.00000  107.24000  62.5%     -    9s
     0     0  107.09957    0  191   66.00000  107.09957  62.3%     -    9s
     0     0  107.02381    0  190   66.00000  107.02381  62.2%     -    9s
     0     0  107.02273    0  189   66.00000  107.02273  62.2%     -    9s
     0     0  106.95580    0  194   66.00000  106.95580  62.1%     -   10s
     0     0  106.89063    0  191   66.00000  106.89063  62.0%     -   10s
     0     0  106.83025    0  193   66.00000  106.83025  61.9%     -   10s
     0     0  106.81667    0  190   66.00000  106.81667  61.8%     -   10s
     0     0  106.81356    0  191   66.00000  106.81356  61.8%     -   10s
     0     0  106.81071    0  191   66.00000  106.81071  61.8%     -   10s
     0     0  106.80862    0  192   66.00000  106.80862  61.8%     -   10s
     0     0  106.80417    0  191   66.00000  106.80417  61.8%     -   10s
     0     0  106.80389    0  191   66.00000  106.80389  61.8%     -   10s
     0     0  106.80172    0  191   66.00000  106.80172  61.8%     -   11s
     0     0  106.80066    0  191   66.00000  106.80066  61.8%     -   11s
     0     0  106.79851    0  191   66.00000  106.79851  61.8%     -   11s
     0     0  106.79570    0  191   66.00000  106.79570  61.8%     -   11s
     0     0  106.79433    0  191   66.00000  106.79433  61.8%     -   11s
     0     0  106.79433    0  190   66.00000  106.79433  61.8%     -   11s
     0     2  106.78993    0  190   66.00000  106.78993  61.8%     -   12s

Cutting planes:
  MIR: 180
  Zero half: 4
  RLT: 60
  BQP: 34

Explored 108 nodes (19592 simplex iterations) in 14.55 seconds (31.99 work units)
Thread count was 1 (of 8 available processors)

Solution count 4: 66 63 22 19 

Optimal solution found (tolerance 1.00e-06)
Best objective 6.600000000000e+01, best bound 6.600000000000e+01, gap 0.0000%
Set parameter TimeLimit to value 600
Set parameter MIPGap to value 1e-06
Set parameter Threads to value 1
Gurobi Optimizer version 9.5.2 build v9.5.2rc0 (linux64)
Thread count: 4 physical cores, 8 logical processors, using up to 1 threads
Optimize a model with 25927 rows, 200 columns and 77779 nonzeros
Model fingerprint: 0x711bb135
Variable types: 0 continuous, 200 integer (200 binary)
Coefficient statistics:
  Matrix range     [1e+00, 1e+00]
  Objective range  [1e+00, 1e+00]
  Bounds range     [1e+00, 1e+00]
  RHS range        [1e+00, 1e+00]
Found heuristic solution: objective 26.0000000
Presolve removed 5506 rows and 4 columns
Presolve time: 0.32s
Presolved: 20421 rows, 196 columns, 64284 nonzeros
Variable types: 0 continuous, 196 integer (196 binary)

Root relaxation: objective 1.002143e+02, 858 iterations, 0.23 seconds (0.71 work units)

    Nodes    |    Current Node    |     Objective Bounds      |     Work
 Expl Unexpl |  Obj  Depth IntInf | Incumbent    BestBd   Gap | It/Node Time

     0     0  100.21429    0  176   26.00000  100.21429   285%     -    0s
H    0     0                      63.0000000  100.21429  59.1%     -    0s
     0     0   86.52500    0  175   63.00000   86.52500  37.3%     -    2s
     0     0   85.60839    0  175   63.00000   85.60839  35.9%     -    2s
     0     0   85.50936    0  175   63.00000   85.50936  35.7%     -    2s
     0     0   85.43763    0  176   63.00000   85.43763  35.6%     -    2s
     0     0   85.37850    0  176   63.00000   85.37850  35.5%     -    2s
     0     0   85.36486    0  176   63.00000   85.36486  35.5%     -    2s
     0     0   85.35714    0  176   63.00000   85.35714  35.5%     -    2s
     0     0   85.35697    0  176   63.00000   85.35697  35.5%     -    2s
     0     0   81.17687    0  177   63.00000   81.17687  28.9%     -    3s
     0     0   80.90435    0  177   63.00000   80.90435  28.4%     -    3s
     0     0   80.80652    0  177   63.00000   80.80652  28.3%     -    3s
     0     0   80.74927    0  177   63.00000   80.74927  28.2%     -    3s
     0     0   80.71014    0  177   63.00000   80.71014  28.1%     -    3s
     0     0   80.70879    0  177   63.00000   80.70879  28.1%     -    3s
     0     0   79.73997    0  176   63.00000   79.73997  26.6%     -    4s
     0     0   79.58974    0  176   63.00000   79.58974  26.3%     -    4s
     0     0   79.48148    0  176   63.00000   79.48148  26.2%     -    4s
     0     0   79.46377    0  176   63.00000   79.46377  26.1%     -    4s
     0     0   79.45714    0  176   63.00000   79.45714  26.1%     -    4s
     0     0   79.39935    0  181   63.00000   79.39935  26.0%     -    4s
     0     0   79.35776    0  181   63.00000   79.35776  26.0%     -    4s
     0     0   79.35527    0  181   63.00000   79.35527  26.0%     -    4s
     0     0   78.19281    0  181   63.00000   78.19281  24.1%     -    5s
H    0     0                      66.0000000   78.19281  18.5%     -    5s
     0     0   77.87662    0  180   66.00000   77.87662  18.0%     -    5s
     0     0   77.70000    0  181   66.00000   77.70000  17.7%     -    5s
     0     0   77.43750    0  181   66.00000   77.43750  17.3%     -    5s
     0     0   77.42002    0  181   66.00000   77.42002  17.3%     -    5s
     0     0   77.37061    0  181   66.00000   77.37061  17.2%     -    5s
     0     0   77.35564    0  181   66.00000   77.35564  17.2%     -    5s
     0     0   77.35556    0  181   66.00000   77.35556  17.2%     -    5s
     0     0   77.15621    0  181   66.00000   77.15621  16.9%     -    6s
     0     0   76.96154    0  181   66.00000   76.96154  16.6%     -    6s
     0     0   76.96133    0  181   66.00000   76.96133  16.6%     -    6s
     0     0   76.85822    0  181   66.00000   76.85822  16.5%     -    6s
     0     0   76.73469    0  181   66.00000   76.73469  16.3%     -    6s
     0     0   76.67816    0  181   66.00000   76.67816  16.2%     -    6s
     0     0   76.65909    0  176   66.00000   76.65909  16.2%     -    6s
     0     0   76.65000    0  181   66.00000   76.65000  16.1%     -    6s
     0     0   76.64525    0  181   66.00000   76.64525  16.1%     -    6s
     0     0   76.61380    0  181   66.00000   76.61380  16.1%     -    6s
     0     0   76.60300    0  181   66.00000   76.60300  16.1%     -    6s
     0     0   76.59665    0  181   66.00000   76.59665  16.1%     -    6s
     0     0   76.58824    0  181   66.00000   76.58824  16.0%     -    6s
     0     0   76.58768    0  181   66.00000   76.58768  16.0%     -    6s
     0     0   76.50075    0  181   66.00000   76.50075  15.9%     -    7s
     0     0   76.44117    0  181   66.00000   76.44117  15.8%     -    7s
     0     0   76.42593    0  181   66.00000   76.42593  15.8%     -    7s
     0     0   76.42308    0  181   66.00000   76.42308  15.8%     -    7s
     0     0   76.36806    0  181   66.00000   76.36806  15.7%     -    7s
     0     0   76.31034    0  181   66.00000   76.31034  15.6%     -    7s
     0     0   76.30208    0  181   66.00000   76.30208  15.6%     -    7s
     0     0   76.30208    0  181   66.00000   76.30208  15.6%     -    7s
     0     0   76.29167    0  181   66.00000   76.29167  15.6%     -    7s
     0     0   76.29167    0  181   66.00000   76.29167  15.6%     -    7s
     0     0   76.16033    0  180   66.00000   76.16033  15.4%     -    8s
     0     0   76.10862    0  181   66.00000   76.10862  15.3%     -    8s
     0     0   76.07165    0  180   66.00000   76.07165  15.3%     -    8s
     0     0   76.04437    0  181   66.00000   76.04437  15.2%     -    8s
     0     0   76.04201    0  181   66.00000   76.04201  15.2%     -    8s
     0     0   76.02277    0  181   66.00000   76.02277  15.2%     -    8s
     0     0   75.94100    0  181   66.00000   75.94100  15.1%     -    8s
     0     0   75.89062    0  181   66.00000   75.89062  15.0%     -    8s
     0     0   75.86499    0  181   66.00000   75.86499  14.9%     -    8s
     0     0   75.85800    0  180   66.00000   75.85800  14.9%     -    8s
     0     0   75.85646    0  181   66.00000   75.85646  14.9%     -    8s
     0     0   75.84930    0  181   66.00000   75.84930  14.9%     -    9s
     0     0   75.84830    0  181   66.00000   75.84830  14.9%     -    9s
     0     0   75.84783    0  181   66.00000   75.84783  14.9%     -    9s
     0     0   75.84783    0  179   66.00000   75.84783  14.9%     -    9s
     0     2   75.82922    0  179   66.00000   75.82922  14.9%     -    9s
     1     3   75.74486    1  180   66.00000   75.74486  14.8%  81.0   10s

Cutting planes:
  Clique: 363
  MIR: 112
  Zero half: 1
  RLT: 5
  BQP: 115

Explored 15 nodes (9659 simplex iterations) in 10.55 seconds (20.01 work units)
Thread count was 1 (of 8 available processors)

Solution count 3: 66 63 26 

Optimal solution found (tolerance 1.00e-06)
Best objective 6.600000000000e+01, best bound 6.600000000000e+01, gap 0.0000%
Set parameter TimeLimit to value 600
Set parameter MIPGap to value 1e-06
Set parameter Threads to value 1
Gurobi Optimizer version 9.5.2 build v9.5.2rc0 (linux64)
Thread count: 4 physical cores, 8 logical processors, using up to 1 threads
Optimize a model with 25927 rows, 200 columns and 77779 nonzeros
Model fingerprint: 0x05c63f12
Variable types: 0 continuous, 200 integer (200 binary)
Coefficient statistics:
  Matrix range     [1e+00, 1e+00]
  Objective range  [1e+00, 1e+00]
  Bounds range     [1e+00, 1e+00]
  RHS range        [1e+00, 1e+00]
Found heuristic solution: objective 20.0000000
Presolve removed 7242 rows and 6 columns
Presolve time: 0.28s
Presolved: 18685 rows, 194 columns, 59463 nonzeros
Variable types: 0 continuous, 194 integer (194 binary)
